unsat
(:SPACER-cluster-out-of-gas           6
 :SPACER-conj                         14
 :SPACER-expand-pob-undef             50
 :SPACER-inductive-gen                89
 :SPACER-inductive-gen-weaken-fail    116
 :SPACER-inductive-gen-weaken-success 20
 :SPACER-inductive-level              17
 :SPACER-max-depth                    17
 :SPACER-max-query-lvl                17
 :SPACER-non-local-gen                119
 :SPACER-num-active-lemmas            35
 :SPACER-num-cant-abstract            1
 :SPACER-num-ctp-blocked              47
 :SPACER-num-invariants               33
 :SPACER-num-is_invariant             785
 :SPACER-num-lemma-jumped             9
 :SPACER-num-lemmas                   191
 :SPACER-num-pobs                     94
 :SPACER-num-propagations             485
 :SPACER-num-queries                  163
 :SPACER-num-reach-queries            23
 :SPACER-num-reuse-reach-facts        17
 :SPACER-subsume-pob                  11
 :SPACER-subsume-success              51
 :added-eqs                           112988
 :arith-assert-diseq                  47692
 :arith-assert-lower                  82102
 :arith-assert-upper                  106744
 :arith-bound-prop                    10106
 :arith-branch-var                    38
 :arith-conflicts                     236
 :arith-eq-adapter                    13804
 :arith-fixed-eqs                     22294
 :arith-gcd-conflicts                 88
 :arith-gcd-tests                     682
 :arith-gomory-cuts                   4
 :arith-ineq-splits                   38
 :arith-num-rows                      64
 :arith-offset-eqs                    5096
 :arith-patches                       124
 :arith-patches_succ                  78
 :arith-pivots                        9704
 :arith-row-summations                45042
 :arith-tableau-max-columns           158
 :arith-tableau-max-rows              64
 :conflicts                           3548
 :decisions                           71046
 :del-clause                          47334
 :final-checks                        1284
 :iuc_solver.num_proxies              173
 :max-memory                          40.10
 :memory                              38.45
 :minimized-lits                      524
 :mk-bool-var                         50892
 :mk-clause                           52732
 :num-allocs                          1655632342
 :num-checks                          3446
 :pool_solver.checks                  1723
 :pool_solver.checks.sat              325
 :pool_solver.checks.undef            251
 :propagations                        428122
 :rlimit-count                        1894688
 :time                                1.78
 :time.iuc_solver.get_iuc             0.19
 :time.iuc_solver.get_iuc.hyp_reduce1 0.05
 :time.iuc_solver.get_iuc.hyp_reduce2 0.09
 :time.iuc_solver.get_iuc.learn_core  0.03
 :time.pool_solver.proof              0.04
 :time.pool_solver.smt.total          0.96
 :time.pool_solver.smt.total.sat      0.29
 :time.pool_solver.smt.total.undef    0.19
 :time.spacer.ctp                     0.01
 :time.spacer.init_rules              0.00
 :time.spacer.mbp                     0.04
 :time.spacer.solve                   1.75
 :time.spacer.solve.propagate         0.52
 :time.spacer.solve.reach             1.23
 :time.spacer.solve.reach.children    0.09
 :time.spacer.solve.reach.cluster     0.14
 :time.spacer.solve.reach.gen.global  0.11
 :time.spacer.solve.reach.gen.ind     0.12
 :time.spacer.solve.reach.is-reach    0.03)
(:max-memory   40.10
 :memory       38.45
 :num-allocs   1655632342
 :rlimit-count 1894688
 :time         1.78
 :total-time   1.80)
